20
1 0 32
2 0 21
2 1 54
3 0 66
3 1 8
3 2 38
4 0 80
4 1 55
4 2 18
4 3 26
5 0 18
5 1 51
5 2 20
5 3 7
5 4 70
6 0 65
6 1 3
6 2 13
6 3 49
6 4 56
6 5 52
7 0 48
7 1 78
7 2 24
7 3 62
7 4 22
7 5 70
7 6 48
8 0 49
8 1 16
8 2 75
8 3 67
8 4 16
8 5 78
8 6 64
8 7 75
9 0 42
9 1 25
9 2 68
9 3 80
9 4 3
9 5 20
9 6 78
9 7 46
9 8 13
10 0 22
10 1 26
10 2 20
10 3 9
10 4 64
10 5 26
10 6 64
10 7 8
10 8 32
10 9 13
11 0 68
11 1 57
11 2 69
11 3 55
11 4 64
11 5 70
11 6 6
11 7 32
11 8 39
11 9 1
11 10 11
12 0 73
12 1 73
12 2 9
12 3 22
12 4 10
12 5 70
12 6 62
12 7 41
12 8 76
12 9 27
12 10 41
12 11 4
13 0 37
13 1 4
13 2 80
13 3 76
13 4 41
13 5 42
13 6 66
13 7 37
13 8 39
13 9 48
13 10 79
13 11 9
13 12 54
14 0 80
14 1 39
14 2 37
14 3 21
14 4 55
14 5 19
14 6 8
14 7 8
14 8 1
14 9 42
14 10 20
14 11 57
14 12 71
14 13 60
15 0 5
15 1 13
15 2 35
15 3 73
15 4 48
15 5 60
15 6 70
15 7 24
15 8 69
15 9 56
15 10 51
15 11 20
15 12 47
15 13 19
15 14 79
16 0 1
16 1 41
16 2 61
16 3 44
16 4 78
16 5 29
16 6 6
16 7 41
16 8 70
16 9 66
16 10 62
16 11 49
16 12 60
16 13 21
16 14 17
16 15 74
17 0 52
17 1 63
17 2 70
17 3 10
17 4 41
17 5 3
17 6 66
17 7 68
17 8 52
17 9 2
17 10 54
17 11 23
17 12 53
17 13 28
17 14 25
17 15 80
17 16 75
18 0 12
18 1 6
18 2 58
18 3 70
18 4 31
18 5 42
18 6 58
18 7 36
18 8 17
18 9 46
18 10 57
18 11 4
18 12 67
18 13 67
18 14 53
18 15 30
18 16 66
18 17 48
19 0 67
19 1 77
19 2 70
19 3 31
19 4 77
19 5 53
19 6 46
19 7 33
19 8 32
19 9 3
19 10 46
19 11 13
19 12 46
19 13 53
19 14 11
19 15 77
19 16 18
19 17 53
19 18 21
